NAME: pr124
COMMENT: Quick (5min) local search tour for pr124 (66467.99836148041)
TYPE: TOUR
DIMENSION: 124
TOUR_SECTION: 1 2 3 4 6 32 7 27 28 29 35 36 57 56 55 26 25 24 38 37 39 40 22 23 21 20 19 18 45 44 43 42 41 54 53 52 46 47 17 16 9 10 13 12 11 14 15 51 50 49 48 88 89 104 105 106 107 108 109 110 111 112 113 114 103 102 101 91 85 86 87 90 58 67 83 81 82 84 115 116 117 118 119 120 121 122 123 124 100 99 98 97 96 95 94 93 92 80 79 78 77 76 75 74 73 72 71 70 69 68 64 63 65 66 62 60 61 59 33 34 30 31 5 8 -1
EOF